12° run output:
{
    "Function": "ClusterA500.tsp",
    "Problem dimension": [
        358,
        384,
        96,
        351,
        494,
        360,
        326,
        0,
        159,
        421,
        477,
        246,
        95,
        379,
        265,
        182,
        431,
        410,
        311,
        243,
        233,
        11,
        46,
        444,
        283,
        303,
        103,
        316,
        150,
        427,
        6,
        217,
        89,
        274,
        495,
        335,
        366,
        488,
        92,
        317,
        199,
        452,
        50,
        378,
        428,
        106,
        44,
        202,
        406,
        41,
        176,
        54,
        308,
        207,
        83,
        80,
        98,
        115,
        4,
        247,
        291,
        440,
        273,
        55,
        342,
        208,
        127,
        373,
        206,
        300,
        241,
        448,
        296,
        472,
        136,
        194,
        224,
        57,
        453,
        380,
        173,
        72,
        58,
        467,
        2,
        227,
        90,
        236,
        310,
        78,
        128,
        169,
        327,
        1,
        329,
        260,
        120,
        371,
        52,
        419,
        212,
        234,
        398,
        322,
        298,
        216,
        13,
        330,
        140,
        105,
        223,
        229,
        62,
        157,
        278,
        32,
        214,
        282,
        175,
        33,
        478,
        131,
        471,
        336,
        267,
        81,
        187,
        413,
        126,
        347,
        405,
        14,
        179,
        368,
        383,
        341,
        460,
        364,
        111,
        75,
        254,
        474,
        318,
        3,
        276,
        470,
        328,
        189,
        436,
        245,
        426,
        15,
        109,
        161,
        196,
        475,
        172,
        76,
        183,
        302,
        499,
        204,
        181,
        117,
        286,
        349,
        56,
        270,
        312,
        68,
        162,
        449,
        139,
        257,
        253,
        381,
        272,
        289,
        86,
        8,
        429,
        64,
        340,
        314,
        321,
        26,
        376,
        481,
        377,
        154,
        71,
        244,
        42,
        178,
        34,
        433,
        249,
        27,
        412,
        65,
        40,
        339,
        401,
        130,
        490,
        415,
        114,
        22,
        47,
        12,
        346,
        132,
        239,
        248,
        240,
        99,
        61,
        393,
        293,
        435,
        30,
        389,
        385,
        485,
        359,
        231,
        235,
        315,
        242,
        225,
        400,
        19,
        407,
        284,
        113,
        486,
        262,
        287,
        288,
        238,
        116,
        466,
        177,
        93,
        220,
        492,
        422,
        403,
        87,
        213,
        266,
        425,
        493,
        7,
        416,
        155,
        70,
        334,
        180,
        497,
        186,
        102,
        170,
        85,
        125,
        39,
        457,
        160,
        362,
        218,
        469,
        348,
        38,
        151,
        79,
        279,
        82,
        108,
        352,
        119,
        277,
        372,
        450,
        193,
        356,
        5,
        250,
        77,
        185,
        259,
        487,
        473,
        484,
        357,
        323,
        432,
        74,
        397,
        219,
        165,
        59,
        29,
        434,
        228,
        88,
        66,
        209,
        20,
        226,
        91,
        203,
        141,
        107,
        16,
        23,
        391,
        451,
        69,
        387,
        482,
        49,
        215,
        148,
        320,
        84,
        476,
        144,
        395,
        10,
        211,
        37,
        101,
        210,
        424,
        309,
        382,
        143,
        122,
        369,
        17,
        164,
        198,
        417,
        67,
        420,
        153,
        145,
        374,
        255,
        370,
        461,
        354,
        271,
        365,
        304,
        332,
        343,
        399,
        496,
        269,
        158,
        129,
        200,
        394,
        295,
        195,
        201,
        205,
        423,
        361,
        388,
        313,
        480,
        447,
        63,
        261,
        123,
        25,
        307,
        60,
        222,
        134,
        491,
        43,
        414,
        167,
        464,
        331,
        390,
        197,
        479,
        443,
        355,
        168,
        28,
        156,
        498,
        263,
        418,
        73,
        345,
        252,
        152,
        53,
        353,
        31,
        285,
        45,
        404,
        462,
        184,
        258,
        325,
        454,
        251,
        97,
        483,
        363,
        237,
        163,
        468,
        221,
        409,
        100,
        459,
        147,
        463,
        35,
        281,
        104,
        48,
        190,
        411,
        458,
        192,
        430,
        268,
        118,
        319,
        24,
        124,
        456,
        367,
        275,
        338,
        230,
        110,
        188,
        256,
        135,
        344,
        112,
        337,
        138,
        305,
        392,
        21,
        292,
        149,
        191,
        18,
        294,
        386,
        232,
        121,
        36,
        299,
        297,
        290,
        51,
        280,
        166,
        333,
        301,
        264,
        174,
        489,
        137,
        324,
        437,
        375,
        441,
        142,
        9,
        408,
        438,
        442,
        306,
        402,
        439,
        171,
        94,
        396,
        133,
        350,
        455,
        446,
        465,
        146,
        445
    ],
    "Global Optimum": 0,
    "Algorithm": "Genetic algorithm",
    "Parameters": {
        "population": 30,
        "offspring": 30,
        "mutation probability": 0.002,
        "crossover probability": 0.9
    },
    "Fitness": 685761,
    "Solution": [
        358,
        384,
        96,
        351,
        494,
        360,
        326,
        0,
        159,
        421,
        477,
        246,
        95,
        379,
        265,
        182,
        431,
        410,
        311,
        243,
        233,
        11,
        46,
        444,
        283,
        303,
        103,
        316,
        150,
        427,
        6,
        217,
        89,
        274,
        495,
        335,
        366,
        488,
        92,
        317,
        199,
        452,
        50,
        378,
        428,
        106,
        44,
        202,
        406,
        41,
        176,
        54,
        308,
        207,
        83,
        80,
        98,
        115,
        4,
        247,
        291,
        440,
        273,
        55,
        342,
        208,
        127,
        373,
        206,
        300,
        241,
        448,
        296,
        472,
        136,
        194,
        224,
        57,
        453,
        380,
        173,
        72,
        58,
        467,
        2,
        227,
        90,
        236,
        310,
        78,
        128,
        169,
        327,
        1,
        329,
        260,
        120,
        371,
        52,
        419,
        212,
        234,
        398,
        322,
        298,
        216,
        13,
        330,
        140,
        105,
        223,
        229,
        62,
        157,
        278,
        32,
        214,
        282,
        175,
        33,
        478,
        131,
        471,
        336,
        267,
        81,
        187,
        413,
        126,
        347,
        405,
        14,
        179,
        368,
        383,
        341,
        460,
        364,
        111,
        75,
        254,
        474,
        318,
        3,
        276,
        470,
        328,
        189,
        436,
        245,
        426,
        15,
        109,
        161,
        196,
        475,
        172,
        76,
        183,
        302,
        499,
        204,
        181,
        117,
        286,
        349,
        56,
        270,
        312,
        68,
        162,
        449,
        139,
        257,
        253,
        381,
        272,
        289,
        86,
        8,
        429,
        64,
        340,
        314,
        321,
        26,
        376,
        481,
        377,
        154,
        71,
        244,
        42,
        178,
        34,
        433,
        249,
        27,
        412,
        65,
        40,
        339,
        401,
        130,
        490,
        415,
        114,
        22,
        47,
        12,
        346,
        132,
        239,
        248,
        240,
        99,
        61,
        393,
        293,
        435,
        30,
        389,
        385,
        485,
        359,
        231,
        235,
        315,
        242,
        225,
        400,
        19,
        407,
        284,
        113,
        486,
        262,
        287,
        288,
        238,
        116,
        466,
        177,
        93,
        220,
        492,
        422,
        403,
        87,
        213,
        266,
        425,
        493,
        7,
        416,
        155,
        70,
        334,
        180,
        497,
        186,
        102,
        170,
        85,
        125,
        39,
        457,
        160,
        362,
        218,
        469,
        348,
        38,
        151,
        79,
        279,
        82,
        108,
        352,
        119,
        277,
        372,
        450,
        193,
        356,
        5,
        250,
        77,
        185,
        259,
        487,
        473,
        484,
        357,
        323,
        432,
        74,
        397,
        219,
        165,
        59,
        29,
        434,
        228,
        88,
        66,
        209,
        20,
        226,
        91,
        203,
        141,
        107,
        16,
        23,
        391,
        451,
        69,
        387,
        482,
        49,
        215,
        148,
        320,
        84,
        476,
        144,
        395,
        10,
        211,
        37,
        101,
        210,
        424,
        309,
        382,
        143,
        122,
        369,
        17,
        164,
        198,
        417,
        67,
        420,
        153,
        145,
        374,
        255,
        370,
        461,
        354,
        271,
        365,
        304,
        332,
        343,
        399,
        496,
        269,
        158,
        129,
        200,
        394,
        295,
        195,
        201,
        205,
        423,
        361,
        388,
        313,
        480,
        447,
        63,
        261,
        123,
        25,
        307,
        60,
        222,
        134,
        491,
        43,
        414,
        167,
        464,
        331,
        390,
        197,
        479,
        443,
        355,
        168,
        28,
        156,
        498,
        263,
        418,
        73,
        345,
        252,
        152,
        53,
        353,
        31,
        285,
        45,
        404,
        462,
        184,
        258,
        325,
        454,
        251,
        97,
        483,
        363,
        237,
        163,
        468,
        221,
        409,
        100,
        459,
        147,
        463,
        35,
        281,
        104,
        48,
        190,
        411,
        458,
        192,
        430,
        268,
        118,
        319,
        24,
        124,
        456,
        367,
        275,
        338,
        230,
        110,
        188,
        256,
        135,
        344,
        112,
        337,
        138,
        305,
        392,
        21,
        292,
        149,
        191,
        18,
        294,
        386,
        232,
        121,
        36,
        299,
        297,
        290,
        51,
        280,
        166,
        333,
        301,
        264,
        174,
        489,
        137,
        324,
        437,
        375,
        441,
        142,
        9,
        408,
        438,
        442,
        306,
        402,
        439,
        171,
        94,
        396,
        133,
        350,
        455,
        446,
        465,
        146,
        445
    ],
    "Nb of functions evaluations": 50010,
    "Computational time in seconds": 406.79541635513306,
    "Stopping criterion in evaluations": 50000
}